(set-logic ALL)
(declare-fun var0 () String)
(assert (str.in_re var0 (re.++ (re.* (re.union (str.to_re "00") (str.to_re "111"))) (re.++ (re.+ (re.* (str.to_re "22"))) (re.++ (re.* (re.* (str.to_re "333"))) (re.++ (re.* (re.* (str.to_re "4"))) (re.++ (re.union (re.union (str.to_re "5") (str.to_re "66")) (re.union (str.to_re "7") (str.to_re "88"))) (re.++ (re.union (re.union (str.to_re "9") (str.to_re "aa")) (re.union (str.to_re "bbb") (str.to_re "ccc"))) (re.++ (re.* (re.+ (str.to_re "dd"))) (re.++ (re.+ (re.union (str.to_re "eee") (str.to_re "f"))) (re.++ (re.union (re.+ (str.to_re "ggg")) (re.+ (str.to_re "hhh"))) (re.* (re.* (str.to_re "ii"))))))))))))))
(assert (<= 451 (str.len var0)))
(check-sat)